param N := 6;
param M := 7;
param K := 2;
param x_max := 6;
param y_max := 7;
param a := 1.0;
param b := 1.0;
param T := 26;
param i_start := 1 6 2 3;
param j_start := 1 2 2 2;
param i_end := 1 6 2 5;
param j_end := 1 3 2 7;